\* Problem: Unknown *\

Maximize
 obj: + xp_0_0 + xp_0_1 + xp_0_2 + xp_0_3 + xp_0_4 + xp_0_5 + xp_1_0
 + xp_1_1 + xp_2_0 + xp_2_1 + xp_2_2 + xp_2_3 + xp_3_0 + xp_3_1 + xp_3_2
 + xp_3_3 + xp_4_0 + xp_5_0 + xp_5_1 + xp_6_0 + xp_6_1 + xp_6_2 + xp_7_0
 + xp_7_1 + xp_8_0 + xp_9_0 + xp_10_0 + xp_11_0 + xp_11_1 + xp_11_2
 + xp_11_3 + xp_11_4 + xp_12_0 + xp_13_0 + xp_13_1 + xp_14_0 + xp_14_1
 + xp_15_0 + xp_16_0 + xp_17_0 + xp_17_1 + xp_17_2 + xp_18_0 + xp_18_1
 + xp_18_2 + xp_18_3 + xp_18_4 + xp_19_0 + xp_19_1 + xp_19_2 + xp_19_3
 + xp_19_4 + xp_20_0 + xp_20_1 + xp_20_2 + xp_20_3 + xp_21_0 + xp_21_1
 + xp_21_2 + xp_21_3 + xp_21_4 + xp_22_0 + xp_22_1 + xp_22_2 + xp_22_3
 + xp_22_4 + xp_22_5 + xp_23_0 + xp_23_1 + xp_23_2 + xp_23_3 + xp_23_4
 + xp_23_5

Subject To
 r_1: 0 xp_0_0 <= 30
 r_2: + xp_23_4 + xp_22_5 + xp_18_3 + xp_5_1 + xp_2_3
 <= 29.2225609756098
 r_3: + xp_23_2 + xp_21_2 + xp_18_4 + xp_6_2 <= 30
 r_4: + xp_18_2 + xp_15_0 <= 30
 r_5: + xp_18_0 <= 28.3056478405316
 r_6: + xp_18_1 <= 30
 r_7: + xp_20_3 <= 30
 r_8: + xp_22_4 + xp_11_3 + xp_3_3 + xp_3_2 + xp_2_1 <= 29.2225609756098
 r_9: + xp_23_3 + xp_11_1 + xp_6_1 + xp_3_1 <= 30
 r_10: + xp_23_5 + xp_3_0 <= 30
 r_11: + xp_18_1 + xp_11_2 <= 28.3056478405316
 r_12: + xp_11_0 <= 30
 r_13: + xp_11_4 <= 30
 r_14: + xp_21_3 + xp_19_4 + xp_14_0 + xp_0_3 + xp_0_1
 <= 29.2225609756098
 r_15: + xp_21_0 + xp_19_3 <= 30
 r_16: + xp_22_2 + xp_21_1 + xp_0_4 + xp_0_2 <= 30
 r_17: + xp_0_0 <= 28.3056478405316
 r_18: + xp_21_2 + xp_4_0 <= 30
 r_19: + xp_19_0 <= 30
 r_20: + xp_21_4 + xp_19_2 + xp_19_1 + xp_14_1 + xp_0_5 <= 30
 r_21: + xp_20_1 <= 29.2225609756098
 r_22: + xp_21_3 + xp_7_1 <= 29.2225609756098
 r_23: + xp_22_5 + xp_22_4 + xp_22_3 + xp_3_3 <= 29.2225609756098
 r_24: + xp_23_4 + xp_18_3 + xp_3_2 + xp_0_5 + xp_0_3
 <= 29.2225609756098
 r_25: 0 xp_0_0 <= 29.2225609756098
 r_26: + xp_0_1 <= 28.3056478405316
 r_27: + xp_11_4 + xp_11_3 <= 29.2225609756098
 r_28: + xp_19_4 + xp_19_2 <= 29.2225609756098
 r_29: + xp_20_2 <= 30
 r_30: + xp_2_0 <= 29.2225609756098
 r_31: + xp_23_3 + xp_23_2 + xp_18_4 + xp_6_2 + xp_6_1 + xp_3_1 <= 30
 r_32: + xp_2_2 <= 30
 r_33: + xp_11_1 + xp_2_3 <= 30
 r_34: + xp_19_3 + xp_2_1 <= 30
 r_35: 0 xp_0_0 <= 30
 r_36: + xp_9_0 <= 29.2225609756098
 r_37: + xp_21_1 + xp_13_1 + xp_0_4 <= 30
 r_38: + xp_1_1 <= 30
 r_39: + xp_17_1 + xp_3_3 <= 30
 r_40: + xp_0_2 <= 28.3056478405316
 r_41: + xp_12_0 <= 29.2225609756098
 r_42: + xp_21_1 <= 30
 r_43: + xp_16_0 <= 30
 r_44: + xp_23_4 + xp_23_3 + xp_23_2 + xp_23_1 <= 30
 r_45: + xp_17_2 + xp_3_2 + xp_3_1 <= 30
 r_46: + xp_18_4 + xp_18_3 + xp_0_5 + xp_0_4 + xp_0_3
 <= 28.3056478405316
 r_47: + xp_22_1 + xp_13_1 <= 30
 r_48: + xp_13_0 <= 30
 r_49: 0 xp_0_0 <= 30
 r_50: 0 xp_0_0 <= 28.3056478405316
 r_51: + xp_1_1 <= 30
 r_52: + xp_8_0 <= 30
 r_53: + xp_23_5 + xp_1_0 <= 30
 r_54: + xp_18_2 <= 28.3056478405316
 r_55: 0 xp_0_0 <= 30
 r_56: 0 xp_0_0 <= 30
 r_57: + xp_22_2 <= 28.3056478405316
 r_58: + xp_22_3 + xp_5_0 <= 28.3056478405316
 r_59: + xp_22_0 + xp_17_1 <= 28.3056478405316
 r_60: + xp_23_1 + xp_17_2 + xp_6_0 <= 28.3056478405316
 r_61: + xp_23_0 + xp_22_1 <= 28.3056478405316
 r_62: + xp_17_0 <= 28.3056478405316
 r_63: + xp_23_4 + xp_23_2 + xp_22_5 + xp_11_2 + xp_6_2 + xp_5_1
 <= 28.3056478405316
 r_64: + xp_23_5 + xp_23_3 + xp_22_4 + xp_6_1 <= 28.3056478405316
 r_65: + xp_20_1 + xp_19_2 + xp_14_1 + xp_11_4 + xp_7_1 + xp_2_2
 + xp_0_5 <= 29.2225609756098
 r_66: + xp_21_4 + xp_20_2 + xp_7_0 <= 30
 r_67: + xp_20_3 + xp_19_1 + xp_10_0 <= 30
 r_68: + xp_20_0 <= 30

Bounds
 0 <= xp_0_0 <= 28.6233755073301
 0 <= xp_0_1 <= 15.0068218933606
 0 <= xp_0_2 <= 15.0068218933606
 0 <= xp_0_3 <= 1.3902682793911
 0 <= xp_0_4 <= 1.3902682793911
 0 <= xp_0_5 <= 1.3902682793911
 0 <= xp_1_0 <= 18.9050414835871
 0 <= xp_1_1 <= 16.2607975487783
 0 <= xp_2_0 <= 23.9345969696814
 0 <= xp_2_1 <= 4.5388512046565
 0 <= xp_2_2 <= 1.24034094639889
 0 <= xp_2_3 <= 4.96136378559556
 0 <= xp_3_0 <= 24.3571277060253
 0 <= xp_3_1 <= 0.831435841371387
 0 <= xp_3_2 <= 6.20172288739927
 0 <= xp_3_3 <= 0.831435841371387
 0 <= xp_4_0 <= 26.1699267217603
 0 <= xp_5_0 <= 21.8082722681335
 0 <= xp_5_1 <= 4.36165445362671
 0 <= xp_6_0 <= 15.7019560330562
 0 <= xp_6_1 <= 3.92548900826404
 0 <= xp_6_2 <= 3.92548900826404
 0 <= xp_7_0 <= 18.8096348312652
 0 <= xp_7_1 <= 3.76192696625304
 0 <= xp_8_0 <= 20.2816932093642
 0 <= xp_9_0 <= 18.8096348312652
 0 <= xp_10_0 <= 18.8096348312652
 0 <= xp_11_0 <= 27.233107227939
 0 <= xp_11_1 <= 14.4616150866573
 0 <= xp_11_2 <= 6.22897415003203
 0 <= xp_11_3 <= 10.7678253546885
 0 <= xp_11_4 <= 0.845061472687766
 0 <= xp_12_0 <= 17.6647005371882
 0 <= xp_13_0 <= 14.3116786759626
 0 <= xp_13_1 <= 2.86233573519253
 0 <= xp_14_0 <= 5.45206806703339
 0 <= xp_14_1 <= 10.9041361340668
 0 <= xp_15_0 <= 16.1926421590892
 0 <= xp_16_0 <= 15.5383939910452
 0 <= xp_17_0 <= 28.7733028403223
 0 <= xp_17_1 <= 12.1580936340796
 0 <= xp_17_2 <= 4.5388512046565
 0 <= xp_18_0 <= 23.5802034676218
 0 <= xp_18_1 <= 11.7901017338109
 0 <= xp_18_2 <= 2.71239932449791
 0 <= xp_18_3 <= 2.71239932449791
 0 <= xp_18_4 <= 2.71239932449791
 0 <= xp_19_0 <= 29.8637255314314
 0 <= xp_19_1 <= 2.6306183034924
 0 <= xp_19_2 <= 2.6306183034924
 0 <= xp_19_3 <= 5.26123660698481
 0 <= xp_19_4 <= 2.6306183034924
 0 <= xp_20_0 <= 27.6828892269156
 0 <= xp_20_1 <= 4.98863320363314
 0 <= xp_20_2 <= 7.03316780647307
 0 <= xp_20_3 <= 2.49431660181657
 0 <= xp_21_0 <= 24.7387633930152
 0 <= xp_21_1 <= 6.73330406278623
 0 <= xp_21_2 <= 2.19445285812973
 0 <= xp_21_3 <= 4.5388512046565
 0 <= xp_21_4 <= 2.19445285812973
 0 <= xp_22_0 <= 14.8432507736472
 0 <= xp_22_1 <= 9.077702409313
 0 <= xp_22_2 <= 3.84369890955613
 0 <= xp_22_3 <= 4.5388512046565
 0 <= xp_22_4 <= 1.92184945477806
 0 <= xp_22_5 <= 4.5388512046565
 0 <= xp_23_0 <= 19.3821019783037
 0 <= xp_23_1 <= 6.46070065943456
 0 <= xp_23_2 <= 1.92184945477806
 0 <= xp_23_3 <= 4.5388512046565
 0 <= xp_23_4 <= 4.5388512046565
 0 <= xp_23_5 <= 1.92184945477806

End
